20
1 0 47
3 0 114
3 1 63
5 0 48
5 2 36
5 3 56
6 0 83
6 2 19
8 4 5
8 7 2
9 1 37
9 3 69
9 5 39
9 6 15
9 7 106
10 2 86
10 3 44
10 7 86
11 3 29
11 4 68
11 5 95
11 6 95
11 10 70
12 2 59
12 3 34
12 6 66
12 7 82
12 11 96
13 3 89
13 4 93
13 6 102
13 7 90
13 8 61
13 11 94
13 12 95
14 1 39
14 3 5
14 5 21
14 6 117
14 8 85
14 9 44
14 10 1
15 0 5
15 6 40
15 10 56
15 14 2
16 0 82
16 1 118
16 3 31
16 4 3
16 5 78
16 6 49
16 7 63
16 8 114
16 13 94
17 0 80
17 3 107
17 8 89
17 10 7
17 11 73
17 14 118
17 16 76
18 0 115
18 1 98
18 3 13
18 4 110
18 6 74
18 8 114
18 11 97
18 13 26
18 14 36
18 16 83
18 17 59
19 1 47
19 2 14
19 4 101
19 6 112
19 7 15
19 8 34
19 11 94
19 15 81
19 17 113
